<?xml version = "1.0" encoding="UTF-8" standalone="yes"?>
<CPLEXSolution version="1.2">
 <header
   problemName="ilog.cplex"
   objectiveValue="0"
   solutionTypeValue="1"
   solutionTypeString="basic"
   solutionStatusValue="1"
   solutionStatusString="optimal"
   solutionMethodString="dual"
   primalFeasible="1"
   dualFeasible="1"
   simplexIterations="0"
   writeLevel="1"/>
 <quality
   epRHS="1e-06"
   epOpt="1e-06"
   maxPrimalInfeas="0"
   maxDualInfeas="0"
   maxPrimalResidual="0"
   maxDualResidual="0"
   maxX="335"
   maxPi="0"
   maxSlack="0"
   maxRedCost="0"
   kappa="3.5"/>
 <linearConstraints>
  <constraint index="0" status="LL" slack="0" dual="0"/>
  <constraint index="1" status="LL" slack="0" dual="0"/>
  <constraint index="2" status="LL" slack="0" dual="-0"/>
  <constraint index="3" status="LL" slack="0" dual="-0"/>
  <constraint index="4" status="LL" slack="0" dual="-0"/>
  <constraint index="5" status="LL" slack="0" dual="-0"/>
  <constraint index="6" status="LL" slack="0" dual="-0"/>
  <constraint index="7" status="LL" slack="0" dual="-0"/>
  <constraint index="8" status="BS" slack="0" dual="0"/>
  <constraint index="9" status="BS" slack="0" dual="0"/>
  <constraint index="10" status="BS" slack="0" dual="0"/>
  <constraint index="11" status="BS" slack="0" dual="0"/>
  <constraint index="12" status="BS" slack="0" dual="0"/>
  <constraint index="13" status="BS" slack="0" dual="0"/>
  <constraint index="14" status="BS" slack="0" dual="0"/>
  <constraint index="15" status="BS" slack="0" dual="0"/>
  <constraint index="16" status="LL" slack="0" dual="-0"/>
  <constraint index="17" status="LL" slack="0" dual="-0"/>
  <constraint index="18" status="LL" slack="0" dual="-0"/>
  <constraint index="19" status="LL" slack="0" dual="-0"/>
  <constraint index="20" status="LL" slack="0" dual="-0"/>
  <constraint index="21" status="LL" slack="0" dual="-0"/>
  <constraint index="22" status="LL" slack="0" dual="-0"/>
  <constraint index="23" status="LL" slack="0" dual="-0"/>
  <constraint index="24" status="BS" slack="0" dual="0"/>
  <constraint index="25" status="BS" slack="0" dual="0"/>
  <constraint index="26" status="BS" slack="0" dual="0"/>
  <constraint index="27" status="BS" slack="0" dual="0"/>
  <constraint index="28" status="BS" slack="0" dual="0"/>
  <constraint index="29" status="LL" slack="0" dual="-0"/>
  <constraint index="30" status="BS" slack="0" dual="0"/>
  <constraint index="31" status="BS" slack="0" dual="0"/>
  <constraint index="32" status="BS" slack="0" dual="0"/>
  <constraint index="33" status="BS" slack="0" dual="0"/>
  <constraint index="34" status="BS" slack="0" dual="0"/>
  <constraint index="35" status="BS" slack="0" dual="0"/>
  <constraint index="36" status="BS" slack="0" dual="0"/>
  <constraint index="37" status="LL" slack="0" dual="-0"/>
  <constraint index="38" status="BS" slack="0" dual="0"/>
  <constraint index="39" status="BS" slack="0" dual="0"/>
  <constraint index="40" status="LL" slack="0" dual="0"/>
  <constraint index="41" status="LL" slack="0" dual="0"/>
  <constraint index="42" status="LL" slack="0" dual="0"/>
  <constraint index="43" status="LL" slack="0" dual="0"/>
  <constraint index="44" status="LL" slack="0" dual="0"/>
  <constraint index="45" status="LL" slack="0" dual="0"/>
  <constraint index="46" status="LL" slack="0" dual="0"/>
  <constraint index="47" status="LL" slack="0" dual="0"/>
  <constraint index="48" status="LL" slack="0" dual="0"/>
  <constraint index="49" status="LL" slack="0" dual="0"/>
  <constraint index="50" status="LL" slack="0" dual="0"/>
  <constraint index="51" status="LL" slack="0" dual="0"/>
  <constraint index="52" status="LL" slack="0" dual="0"/>
  <constraint index="53" status="LL" slack="0" dual="0"/>
  <constraint index="54" status="LL" slack="0" dual="0"/>
  <constraint index="55" status="LL" slack="0" dual="0"/>
  <constraint index="56" status="LL" slack="0" dual="0"/>
  <constraint index="57" status="LL" slack="0" dual="0"/>
  <constraint index="58" status="LL" slack="0" dual="0"/>
  <constraint index="59" status="LL" slack="0" dual="0"/>
  <constraint index="60" status="LL" slack="0" dual="0"/>
  <constraint index="61" status="LL" slack="0" dual="0"/>
  <constraint index="62" status="LL" slack="0" dual="0"/>
  <constraint index="63" status="LL" slack="0" dual="0"/>
  <constraint index="64" status="LL" slack="0" dual="0"/>
  <constraint index="65" status="LL" slack="0" dual="0"/>
  <constraint index="66" status="LL" slack="0" dual="0"/>
  <constraint index="67" status="LL" slack="0" dual="0"/>
  <constraint index="68" status="LL" slack="0" dual="0"/>
  <constraint index="69" status="LL" slack="0" dual="0"/>
 </linearConstraints>
 <variables>
  <variable name="x(0,1,0,2,5,2)(0)" index="0" status="LL" value="0" reducedCost="0"/>
  <variable name="x(0,1,0,2,5,2)(1)" index="1" status="BS" value="63" reducedCost="0"/>
  <variable name="x(0,1,0,2,5,2)(2)" index="2" status="LL" value="0" reducedCost="0"/>
  <variable name="x(0,1,0,2,5,2)(3)" index="3" status="LL" value="0" reducedCost="0"/>
  <variable name="x(0,1,0,2,5,3)(0)" index="4" status="BS" value="335" reducedCost="0"/>
  <variable name="x(0,1,0,2,5,3)(1)" index="5" status="LL" value="0" reducedCost="0"/>
  <variable name="x(0,1,0,2,5,3)(2)" index="6" status="LL" value="0" reducedCost="0"/>
  <variable name="x(0,1,0,2,5,3)(3)" index="7" status="LL" value="0" reducedCost="0"/>
  <variable name="xNG(0,1,0,2,5,2)" index="8" status="BS" value="-0" reducedCost="0"/>
  <variable name="xNG(0,1,0,2,5,3)" index="9" status="BS" value="335" reducedCost="0"/>
  <variable name="xPB(0,1,0,2,5,2)(0)" index="10" status="BS" value="63" reducedCost="0"/>
  <variable name="xPB(0,1,0,2,5,2)(1)" index="11" status="LL" value="0" reducedCost="0"/>
  <variable name="xPB(0,1,0,2,5,2)(2)" index="12" status="LL" value="0" reducedCost="0"/>
  <variable name="xPB(0,1,0,2,5,2)(3)" index="13" status="LL" value="0" reducedCost="0"/>
  <variable name="xPB(0,1,0,2,5,2)(4)" index="14" status="LL" value="0" reducedCost="0"/>
  <variable name="xPB(0,1,0,2,5,3)(0)" index="15" status="BS" value="-0" reducedCost="0"/>
  <variable name="xPB(0,1,0,2,5,3)(1)" index="16" status="LL" value="0" reducedCost="0"/>
  <variable name="xPB(0,1,0,2,5,3)(2)" index="17" status="LL" value="0" reducedCost="0"/>
  <variable name="xPB(0,1,0,2,5,3)(3)" index="18" status="LL" value="0" reducedCost="0"/>
  <variable name="xPB(0,1,0,2,5,3)(4)" index="19" status="LL" value="0" reducedCost="0"/>
  <variable name="xGS(0,1,0,2,5,2)(0)" index="20" status="BS" value="-0" reducedCost="0"/>
  <variable name="xGS(0,1,0,2,5,2)(1)" index="21" status="LL" value="0" reducedCost="0"/>
  <variable name="xGS(0,1,0,2,5,2)(2)" index="22" status="LL" value="0" reducedCost="0"/>
  <variable name="xGS(0,1,0,2,5,2)(3)" index="23" status="LL" value="0" reducedCost="0"/>
  <variable name="xGS(0,1,0,2,5,2)(4)" index="24" status="LL" value="0" reducedCost="0"/>
  <variable name="xGS(0,1,0,2,5,3)(0)" index="25" status="BS" value="-0" reducedCost="0"/>
  <variable name="xGS(0,1,0,2,5,3)(1)" index="26" status="LL" value="0" reducedCost="0"/>
  <variable name="xGS(0,1,0,2,5,3)(2)" index="27" status="LL" value="0" reducedCost="0"/>
  <variable name="xGS(0,1,0,2,5,3)(3)" index="28" status="LL" value="0" reducedCost="0"/>
  <variable name="xGS(0,1,0,2,5,3)(4)" index="29" status="LL" value="0" reducedCost="0"/>
  <variable name="xEAe(0,1,0,2,5,2)(1)" index="30" status="LL" value="0" reducedCost="0"/>
  <variable name="xEAe(0,1,0,2,5,2)(2)" index="31" status="LL" value="0" reducedCost="0"/>
  <variable name="xEAe(0,1,0,2,5,2)(3)" index="32" status="LL" value="0" reducedCost="0"/>
  <variable name="xEAe(0,1,0,2,5,3)(1)" index="33" status="LL" value="0" reducedCost="0"/>
  <variable name="xEAe(0,1,0,2,5,3)(2)" index="34" status="LL" value="0" reducedCost="0"/>
  <variable name="xEAe(0,1,0,2,5,3)(3)" index="35" status="LL" value="0" reducedCost="0"/>
  <variable name="xEAe&apos;(0,1,0,2,5,2)(1)(5)" index="36" status="LL" value="0" reducedCost="0"/>
  <variable name="xEAe&apos;(0,1,0,2,5,2)(2)(5)" index="37" status="LL" value="0" reducedCost="0"/>
  <variable name="xEAe&apos;(0,1,0,2,5,2)(3)(5)" index="38" status="LL" value="0" reducedCost="0"/>
  <variable name="xEAe&apos;(0,1,0,2,5,3)(1)(5)" index="39" status="LL" value="0" reducedCost="0"/>
  <variable name="xEAe&apos;(0,1,0,2,5,3)(2)(5)" index="40" status="LL" value="0" reducedCost="0"/>
  <variable name="xEAe&apos;(0,1,0,2,5,3)(3)(5)" index="41" status="LL" value="0" reducedCost="0"/>
  <variable name="xEAeR(0,1,0,2,5,2)(1)" index="42" status="BS" value="0" reducedCost="0"/>
  <variable name="xEAeR(0,1,0,2,5,2)(2)" index="43" status="BS" value="0" reducedCost="0"/>
  <variable name="xEAeR(0,1,0,2,5,2)(3)" index="44" status="BS" value="0" reducedCost="0"/>
  <variable name="xEAeR(0,1,0,2,5,3)(1)" index="45" status="BS" value="0" reducedCost="0"/>
  <variable name="xEAeR(0,1,0,2,5,3)(2)" index="46" status="BS" value="0" reducedCost="0"/>
  <variable name="xEAeR(0,1,0,2,5,3)(3)" index="47" status="BS" value="0" reducedCost="0"/>
  <variable name="xEAr(0,1,0,2,0)(2)(1)" index="48" status="LL" value="0" reducedCost="0"/>
  <variable name="xEAr(0,1,0,2,0)(3)(1)" index="49" status="LL" value="0" reducedCost="0"/>
  <variable name="xEAr(0,1,0,2,0)(3)(2)" index="50" status="BS" value="0" reducedCost="0"/>
  <variable name="xEAr(0,1,0,2,1)(2)(1)" index="51" status="LL" value="0" reducedCost="0"/>
  <variable name="xEAr(0,1,0,2,1)(3)(1)" index="52" status="LL" value="0" reducedCost="0"/>
  <variable name="xEAr(0,1,0,2,1)(3)(2)" index="53" status="BS" value="0" reducedCost="0"/>
  <variable name="xEAr(0,1,0,2,2)(2)(1)" index="54" status="LL" value="0" reducedCost="0"/>
  <variable name="xEAr(0,1,0,2,2)(3)(1)" index="55" status="LL" value="0" reducedCost="0"/>
  <variable name="xEAr(0,1,0,2,2)(3)(2)" index="56" status="BS" value="0" reducedCost="0"/>
  <variable name="xEAr(0,1,0,2,3)(2)(1)" index="57" status="LL" value="0" reducedCost="0"/>
  <variable name="xEAr(0,1,0,2,3)(3)(1)" index="58" status="LL" value="0" reducedCost="0"/>
  <variable name="xEAr(0,1,0,2,3)(3)(2)" index="59" status="BS" value="0" reducedCost="0"/>
  <variable name="xEAr(0,1,0,2,4)(2)(1)" index="60" status="LL" value="0" reducedCost="0"/>
  <variable name="xEAr(0,1,0,2,4)(3)(1)" index="61" status="LL" value="0" reducedCost="0"/>
  <variable name="xEAr(0,1,0,2,4)(3)(2)" index="62" status="BS" value="0" reducedCost="0"/>
  <variable name="xEAr(0,1,0,2,5)(2)(1)" index="63" status="BS" value="0" reducedCost="0"/>
  <variable name="xEAr(0,1,0,2,5)(3)(1)" index="64" status="BS" value="0" reducedCost="0"/>
  <variable name="xEAr(0,1,0,2,5)(3)(2)" index="65" status="BS" value="0" reducedCost="0"/>
  <variable name="xEAr(0,1,0,2,6)(2)(1)" index="66" status="LL" value="0" reducedCost="0"/>
  <variable name="xEAr(0,1,0,2,6)(3)(1)" index="67" status="LL" value="0" reducedCost="0"/>
  <variable name="xEAr(0,1,0,2,6)(3)(2)" index="68" status="BS" value="0" reducedCost="0"/>
  <variable name="xEAr(0,1,0,2,7)(2)(1)" index="69" status="LL" value="0" reducedCost="0"/>
  <variable name="xEAr(0,1,0,2,7)(3)(1)" index="70" status="LL" value="0" reducedCost="0"/>
  <variable name="xEAr(0,1,0,2,7)(3)(2)" index="71" status="BS" value="0" reducedCost="0"/>
  <variable name="xEAr&apos;(0,1,0,2,0)(2)(1)(0)" index="72" status="LL" value="0" reducedCost="0"/>
  <variable name="xEAr&apos;(0,1,0,2,0)(3)(1)(0)" index="73" status="LL" value="0" reducedCost="0"/>
  <variable name="xEAr&apos;(0,1,0,2,0)(3)(2)(0)" index="74" status="LL" value="0" reducedCost="0"/>
  <variable name="xEAr&apos;(0,1,0,2,1)(2)(1)(1)" index="75" status="LL" value="0" reducedCost="0"/>
  <variable name="xEAr&apos;(0,1,0,2,1)(3)(1)(1)" index="76" status="LL" value="0" reducedCost="0"/>
  <variable name="xEAr&apos;(0,1,0,2,1)(3)(2)(1)" index="77" status="LL" value="0" reducedCost="0"/>
  <variable name="xEAr&apos;(0,1,0,2,2)(2)(1)(2)" index="78" status="LL" value="0" reducedCost="0"/>
  <variable name="xEAr&apos;(0,1,0,2,2)(3)(1)(2)" index="79" status="LL" value="0" reducedCost="0"/>
  <variable name="xEAr&apos;(0,1,0,2,2)(3)(2)(2)" index="80" status="LL" value="0" reducedCost="0"/>
  <variable name="xEAr&apos;(0,1,0,2,3)(2)(1)(3)" index="81" status="LL" value="0" reducedCost="0"/>
  <variable name="xEAr&apos;(0,1,0,2,3)(3)(1)(3)" index="82" status="LL" value="0" reducedCost="0"/>
  <variable name="xEAr&apos;(0,1,0,2,3)(3)(2)(3)" index="83" status="LL" value="0" reducedCost="0"/>
  <variable name="xEAr&apos;(0,1,0,2,4)(2)(1)(4)" index="84" status="LL" value="0" reducedCost="0"/>
  <variable name="xEAr&apos;(0,1,0,2,4)(3)(1)(4)" index="85" status="LL" value="0" reducedCost="0"/>
  <variable name="xEAr&apos;(0,1,0,2,4)(3)(2)(4)" index="86" status="LL" value="0" reducedCost="0"/>
  <variable name="xEAr&apos;(0,1,0,2,5)(2)(1)(5)" index="87" status="LL" value="0" reducedCost="0"/>
  <variable name="xEAr&apos;(0,1,0,2,5)(3)(1)(5)" index="88" status="LL" value="0" reducedCost="0"/>
  <variable name="xEAr&apos;(0,1,0,2,5)(3)(2)(5)" index="89" status="LL" value="0" reducedCost="0"/>
  <variable name="xEAr&apos;(0,1,0,2,6)(2)(1)(6)" index="90" status="LL" value="0" reducedCost="0"/>
  <variable name="xEAr&apos;(0,1,0,2,6)(3)(1)(6)" index="91" status="LL" value="0" reducedCost="0"/>
  <variable name="xEAr&apos;(0,1,0,2,6)(3)(2)(6)" index="92" status="LL" value="0" reducedCost="0"/>
  <variable name="xEAr&apos;(0,1,0,2,7)(2)(1)(7)" index="93" status="LL" value="0" reducedCost="0"/>
  <variable name="xEAr&apos;(0,1,0,2,7)(3)(1)(7)" index="94" status="LL" value="0" reducedCost="0"/>
  <variable name="xEAr&apos;(0,1,0,2,7)(3)(2)(7)" index="95" status="LL" value="0" reducedCost="0"/>
  <variable name="xEArR(0,1,0,2,0)(2)(1)" index="96" status="BS" value="0" reducedCost="0"/>
  <variable name="xEArR(0,1,0,2,0)(3)(1)" index="97" status="BS" value="0" reducedCost="0"/>
  <variable name="xEArR(0,1,0,2,0)(3)(2)" index="98" status="BS" value="0" reducedCost="0"/>
  <variable name="xEArR(0,1,0,2,1)(2)(1)" index="99" status="BS" value="0" reducedCost="0"/>
  <variable name="xEArR(0,1,0,2,1)(3)(1)" index="100" status="BS" value="0" reducedCost="0"/>
  <variable name="xEArR(0,1,0,2,1)(3)(2)" index="101" status="BS" value="0" reducedCost="0"/>
  <variable name="xEArR(0,1,0,2,2)(2)(1)" index="102" status="BS" value="0" reducedCost="0"/>
  <variable name="xEArR(0,1,0,2,2)(3)(1)" index="103" status="BS" value="0" reducedCost="0"/>
  <variable name="xEArR(0,1,0,2,2)(3)(2)" index="104" status="BS" value="0" reducedCost="0"/>
  <variable name="xEArR(0,1,0,2,3)(2)(1)" index="105" status="BS" value="0" reducedCost="0"/>
  <variable name="xEArR(0,1,0,2,3)(3)(1)" index="106" status="BS" value="0" reducedCost="0"/>
  <variable name="xEArR(0,1,0,2,3)(3)(2)" index="107" status="BS" value="0" reducedCost="0"/>
  <variable name="xEArR(0,1,0,2,4)(2)(1)" index="108" status="BS" value="0" reducedCost="0"/>
  <variable name="xEArR(0,1,0,2,4)(3)(1)" index="109" status="BS" value="0" reducedCost="0"/>
  <variable name="xEArR(0,1,0,2,4)(3)(2)" index="110" status="BS" value="0" reducedCost="0"/>
  <variable name="xEArR(0,1,0,2,5)(2)(1)" index="111" status="BS" value="0" reducedCost="0"/>
  <variable name="xEArR(0,1,0,2,5)(3)(1)" index="112" status="BS" value="0" reducedCost="0"/>
  <variable name="xEArR(0,1,0,2,5)(3)(2)" index="113" status="BS" value="0" reducedCost="0"/>
  <variable name="xEArR(0,1,0,2,6)(2)(1)" index="114" status="BS" value="0" reducedCost="0"/>
  <variable name="xEArR(0,1,0,2,6)(3)(1)" index="115" status="BS" value="0" reducedCost="0"/>
  <variable name="xEArR(0,1,0,2,6)(3)(2)" index="116" status="BS" value="0" reducedCost="0"/>
  <variable name="xEArR(0,1,0,2,7)(2)(1)" index="117" status="BS" value="0" reducedCost="0"/>
  <variable name="xEArR(0,1,0,2,7)(3)(1)" index="118" status="BS" value="0" reducedCost="0"/>
  <variable name="xEArR(0,1,0,2,7)(3)(2)" index="119" status="BS" value="0" reducedCost="0"/>
 </variables>
</CPLEXSolution>
